c seed 1079141202
c width 6
c scramble 0
c layers 2
c equalities 0
c ands 0
c xors3 0
c xors4 0
c layer[0] = [1..5] w=5 v=5 c=17 r=3.40 q=0
c layer[1] = [6..11] w=6 v=11 c=41 r=3.73 q=0
p cnf 11 58
-4 -1 2 0
1 4 3 5 0
-2 -3 -5 0
3 5 -1 -2 0
5 2 3 0
3 -4 0
5 3 4 0
-5 1 -4 3 0
2 -5 4 1 0
-5 3 2 0
-4 -5 3 -2 1 0
3 1 0
-5 3 -4 0
-4 5 -2 3 0
5 2 0
4 -2 0
-1 -4 -2 0
9 -1 6 0
11 -3 -1 -5 0
-4 -6 -2 5 8 0
-11 -4 3 0
7 -8 5 0
3 -1 -9 10 0
-7 -4 -10 0
3 2 -4 9 10 -5 0
-11 6 4 8 0
-4 6 3 0
3 9 7 -4 1 -11 0
-11 3 -2 0
4 5 -6 0
1 -5 9 11 0
-1 3 8 0
10 -1 0
-7 2 -4 0
-5 8 -11 3 0
5 4 8 -9 7 0
11 -7 -2 0
-1 -9 -3 7 -8 0
10 -11 2 0
-6 1 5 -2 7 0
-10 1 -8 0
4 1 2 -8 0
-6 2 11 0
-3 4 -6 -10 -2 0
10 -8 -11 0
-8 -2 10 0
5 0
6 -10 0
2 -3 -11 -6 5 0
-1 -7 4 -6 0
4 6 -2 0
11 -10 4 6 5 0
-10 -7 3 9 2 5 6 -8 0
-3 -7 6 -4 -8 2 9 0
5 -3 -8 -10 -1 4 0
-10 -5 -3 -4 1 -2 0
-10 5 -4 -3 -7 0
1 -4 -3 -2 0
