c seed 1648855860
c width 10
c scramble 1
c layers 2
c equalities 0
c ands 0
c xors3 0
c xors4 0
c layer[0] = [1..8] w=8 v=8 c=26 r=3.25 q=0
c layer[1] = [9..13] w=5 v=13 c=45 r=3.46 q=0
p cnf 13 71
8 -4 3 0
6 -1 4 -2 7 0
-6 -8 -3 5 1 -7 0
2 -5 -1 0
1 7 -3 0
-3 5 -7 -1 0
8 -3 1 -4 0
2 -6 -3 -7 0
6 2 -8 -5 0
8 -7 -6 -1 0
5 2 -8 6 -1 0
7 -6 -2 0
-3 4 0
5 -4 -8 6 1 -7 2 0
-4 -5 0
2 5 6 4 -3 0
1 -5 6 3 4 2 7 0
-3 -2 -6 7 0
-8 6 -4 0
-6 5 2 8 0
-6 -7 2 0
-2 6 3 -4 -1 5 0
-4 1 -6 -3 0
4 -3 0
-3 -4 0
-4 2 7 -1 5 0
-1 10 -11 0
8 11 -5 0
-13 7 0
9 12 3 -4 13 7 0
6 -2 8 -10 -12 7 -9 3 -11 13 0
-7 13 -6 0
11 -3 -9 -13 5 0
9 12 0
4 13 -5 11 8 0
-11 5 1 -2 6 -10 -9 0
7 5 1 0
13 -8 -1 2 0
13 5 3 -1 9 0
-4 -3 0
-6 -9 -10 1 0
-13 -5 -2 0
5 -10 -9 -6 11 -8 -2 0
-7 1 11 -4 13 -6 9 -10 0
2 -9 -8 4 0
2 11 -8 0
3 -13 2 0
-3 10 13 0
-8 -9 12 -6 2 -1 0
-7 6 -5 -10 -1 0
-8 6 13 0
-8 -6 11 0
2 11 5 0
8 -10 -11 -2 13 7 0
3 12 11 0
4 -11 6 -12 10 0
-11 -2 -6 0
-7 3 -12 -6 11 0
12 13 3 0
13 2 3 0
9 -4 -2 0
3 7 9 6 0
5 12 -10 0
12 6 0
5 2 -7 -11 0
-7 -12 9 0
-12 -9 1 4 0
-2 12 -3 0
11 8 -9 0
6 12 -4 -9 10 11 -1 2 0
-1 -12 -10 0
