c seed 1123422137
c width 6
c scramble 1
c layers 3
c equalities 0
c ands 0
c xors3 0
c xors4 0
c layer[0] = [1..6] w=6 v=6 c=18 r=3.00 q=0
c layer[1] = [7..11] w=5 v=11 c=47 r=4.27 q=0
c layer[2] = [12..16] w=5 v=10 c=32 r=3.20 q=0
p cnf 16 97
-4 -3 5 0
3 -2 -5 -1 0
1 4 2 -6 0
6 5 -4 3 -2 0
-2 -4 -1 6 3 0
5 -1 2 0
-3 -5 -2 1 0
-3 2 1 0
4 1 -5 0
2 3 -6 0
-5 -3 1 0
2 6 -3 5 0
-1 2 -6 0
5 -1 4 -6 2 0
-1 0
5 2 1 4 6 0
-1 0
1 5 -6 3 0
-11 -9 6 0
3 -10 9 0
-7 2 6 0
3 11 1 0
-8 4 6 7 -2 0
8 10 -11 -7 -4 0
9 -4 -10 11 0
-5 7 -11 6 0
-10 -3 9 -6 0
-2 9 11 0
7 -8 -2 -4 0
9 -5 -7 0
-10 11 8 6 0
-7 1 0
-5 6 9 0
-4 6 11 5 -8 9 0
3 2 4 -5 0
-8 -1 -5 -7 -4 -10 11 9 0
-1 -9 4 0
10 -5 4 0
4 -5 -1 -10 0
2 4 3 0
-5 -6 9 -11 7 -3 4 0
10 -7 -1 -5 -8 0
-5 7 1 -4 10 -9 0
10 -3 -9 -5 1 6 0
-9 10 -1 5 0
9 7 8 -1 2 3 -11 0
9 -10 -1 0
-5 -2 -7 0
-1 -4 9 -5 0
2 -11 6 -10 0
-10 4 -6 -2 0
-10 -3 6 0
-5 -8 -3 10 -6 7 0
-4 8 -5 2 -1 0
-4 9 3 5 -11 0
-6 -3 -8 7 0
5 -8 -7 0
-10 -1 7 -4 0
3 -8 -6 4 -1 0
-9 -6 -10 -8 -3 0
-9 4 5 -7 3 0
2 9 -5 -6 1 11 -10 0
2 -6 0
-2 -6 5 -9 0
9 2 8 0
-14 16 0
-9 13 0
-9 -6 14 0
11 15 12 -13 0
10 -9 -16 -15 0
-7 1 -12 16 0
7 -4 8 0
12 13 -8 -2 0
15 -10 -8 -13 12 0
-3 -8 15 6 -12 -2 0
13 4 7 0
-16 -12 -14 0
-16 15 -14 0
14 -13 -8 -5 2 -3 4 -16 0
3 -2 4 -1 0
-1 -14 13 0
-16 -14 -4 -2 0
-14 16 0
16 -9 3 15 0
5 -13 -12 0
-4 6 -13 11 -1 3 -16 -15 0
-6 16 15 8 0
-13 14 -2 0
16 -13 5 -1 0
-11 -13 2 6 -12 0
16 9 -14 0
14 6 16 -2 -4 0
10 11 0
-12 5 16 0
9 -13 14 -8 3 -1 15 0
2 7 3 0
-12 -4 13 0
