c seed 1916688151
c width 10
c scramble -1
c layers 1
c equalities 0
c ands 0
c xors3 0
c xors4 0
c layer[0] = [1..9] w=9 v=9 c=37 r=4.11 q=0
p cnf 9 37
-2 4 6 1 -7 -3 -8 0
-5 -9 8 7 2 0
-1 5 -4 -6 0
3 9 -5 0
-2 9 8 0
7 -8 1 3 0
5 2 3 0
5 -8 0
-2 -6 5 7 0
-2 1 -5 -4 6 -9 -7 0
-3 -5 -9 -2 0
3 -7 6 2 1 0
-9 -8 4 -3 0
7 2 4 5 6 0
-7 -1 -6 8 0
6 7 -1 0
6 2 3 8 -7 0
3 -9 6 -4 0
2 -4 0
4 -3 0
6 5 4 -2 -1 -8 9 7 0
-6 5 -3 0
-2 -4 6 7 1 9 5 -8 0
4 -6 -1 5 0
-6 -9 -5 8 0
8 -6 0
9 -7 0
4 -1 -2 -9 0
-1 3 5 -9 6 0
-1 5 3 8 -4 0
-3 1 -9 -8 0
-1 3 -6 0
5 -6 0
6 4 3 5 0
-3 1 7 -9 -6 0
7 -1 -5 3 2 4 -9 0
8 2 -1 0
