c seed 1928856226
c width 8
c scramble 0
c layers 3
c equalities 0
c ands 0
c xors3 0
c xors4 0
c layer[0] = [1..7] w=7 v=7 c=24 r=3.43 q=0
c layer[1] = [8..15] w=8 v=15 c=45 r=3.00 q=0
c layer[2] = [16..21] w=6 v=14 c=59 r=4.21 q=0
p cnf 21 128
3 -1 7 0
1 4 -2 5 -3 0
6 -7 -5 0
-6 2 -4 7 -5 0
4 5 2 -1 0
-1 4 7 0
-2 -7 0
-4 5 1 7 -2 6 0
2 -5 4 0
1 7 -2 3 0
-5 -4 0
2 -7 -5 -3 1 4 0
6 -1 -4 0
1 7 2 -4 0
5 -7 3 0
7 1 -3 -2 -6 0
6 -1 0
2 -4 0
7 -5 -6 -3 0
-5 3 -4 0
-4 -2 -1 3 0
-5 2 3 0
-1 4 -5 3 0
-3 -1 -4 2 6 0
11 -7 14 0
-5 -15 12 4 0
-12 4 -11 0
3 -7 8 0
6 -9 -14 0
-13 15 5 -4 10 -2 -8 9 0
2 7 -6 0
-10 13 7 0
-11 4 -13 12 14 0
-2 -10 3 15 0
-12 9 4 2 -11 14 0
2 -9 -13 0
6 -12 1 11 0
2 -1 -4 -8 0
-12 -6 14 3 -9 0
-2 -8 3 0
2 -11 -9 7 -4 0
15 -5 1 -13 4 3 0
6 -12 11 8 14 0
5 -11 -4 0
-10 -5 0
2 -9 11 0
-2 -1 -8 13 -10 -9 3 14 0
-12 1 7 0
-9 11 -3 -8 -7 -13 0
-13 -14 -7 11 -6 0
4 5 11 3 0
-6 5 4 2 -8 -13 0
7 5 -3 -13 4 -6 14 0
6 7 15 0
13 -4 -11 0
-11 13 8 1 -5 0
15 12 -10 0
3 -7 14 12 0
5 10 -8 12 0
-12 14 -7 0
-7 -4 15 0
-12 -13 -11 0
-8 -2 12 0
5 8 12 -7 -2 1 0
-14 5 4 -12 9 -6 0
-7 11 2 14 0
-12 2 -7 -4 15 8 0
-3 -12 -13 0
15 -5 -7 -10 0
-2 -8 16 1 -20 18 17 0
20 -13 11 19 0
-18 -3 -17 -16 -15 0
21 0
-5 -21 -19 0
-18 -12 17 0
-2 -18 16 5 8 0
-18 16 19 5 12 7 0
17 -12 20 -7 19 -8 0
19 -10 -21 -16 0
-21 -10 -19 0
-3 -16 14 4 -2 0
-15 21 -2 19 17 12 0
6 16 -21 -9 17 2 0
5 -18 -21 0
20 16 21 0
12 -8 -17 18 -7 10 -20 0
13 -14 7 0
-21 20 -1 -13 -11 0
-10 -20 -14 -9 0
7 -13 -10 8 -14 0
17 -7 -16 0
18 -13 -7 -20 0
11 17 1 9 21 16 0
16 -19 0
-5 -2 11 -13 8 0
21 -14 -4 -1 18 7 0
-13 6 2 17 -3 0
20 18 12 0
1 12 16 0
-4 14 18 0
16 -17 15 13 21 0
19 -16 0
-18 19 -9 -7 3 15 0
-19 -3 18 -21 0
20 1 5 17 -3 12 0
3 -19 -17 12 18 0
-19 20 0
20 -5 6 -10 15 4 0
14 21 -18 4 5 17 6 0
19 11 -17 -20 0
19 -20 4 8 0
-20 7 -19 -9 0
15 16 19 0
11 4 -5 -17 0
17 19 20 0
-1 15 -12 3 0
21 20 0
19 -10 -8 0
21 -11 1 0
-6 -20 -4 0
1 17 11 -4 -16 14 20 7 18 -21 9 0
20 -13 -7 -19 12 -4 0
19 -12 -5 2 20 0
19 8 -3 0
5 14 20 -7 -16 19 0
-2 1 13 18 0
20 -17 0
9 15 -19 18 20 5 0
