c seed 970899505
c width 7
c scramble 0
c layers 2
c equalities 0
c ands 0
c xors3 2
c xors4 0
c layer[0] = [1..7] w=7 v=7 c=29 r=4.14 q=0
c layer[1] = [8..14] w=7 v=14 c=59 r=4.21 q=0
p cnf 14 96
-6 4 -7 1 -2 3 0
6 -3 7 5 0
2 -4 -5 -1 0
3 -4 -7 6 5 0
3 1 2 6 0
2 -5 0
-5 -1 7 6 0
-4 1 0
-6 -4 -1 2 3 -5 0
3 -1 2 0
-4 -5 6 7 -3 0
-6 3 -2 -4 0
-4 -7 2 0
-7 -5 3 4 6 0
-7 5 -4 -1 0
5 1 6 -4 -3 0
-2 -4 -6 -5 -1 0
3 -5 0
-7 -5 -2 0
-1 7 0
4 1 2 0
7 2 -3 5 4 -1 0
2 1 -5 0
-1 4 -5 0
4 5 -6 -7 0
7 2 6 5 0
-7 3 4 0
-5 7 0
-7 -5 -4 6 -2 0
2 5 -6 12 -8 0
3 13 8 9 11 10 0
-11 -14 2 0
5 14 -9 0
-12 -13 -10 14 -6 5 4 -1 -3 -7 0
7 -5 0
-3 -13 10 0
3 6 7 -4 0
14 3 12 0
1 14 2 0
-12 8 5 0
-11 -3 -12 0
-11 6 5 -10 0
3 -5 9 4 -8 0
-14 -7 3 8 -13 5 0
14 10 9 11 0
-14 1 -7 0
-8 3 0
-9 7 12 0
-3 -8 -11 -9 -12 -13 0
-12 6 -10 -7 11 -1 0
-11 7 9 0
7 -12 8 13 0
8 -13 10 0
1 -10 -9 0
-2 -1 7 0
-10 2 0
10 2 7 11 -5 -14 -8 -6 -13 12 0
-9 11 1 13 0
-6 -5 -14 0
11 -7 -6 5 2 0
-5 2 -4 0
5 -6 -11 0
6 14 0
3 -2 -7 0
-11 1 -2 12 0
4 -6 12 0
8 -5 14 10 0
7 -8 -6 -13 0
9 -11 -5 10 0
-4 10 8 0
-4 -13 7 2 11 0
-5 -3 4 10 12 -14 -13 0
-7 12 9 0
3 -14 6 5 0
-12 -4 -14 -13 -8 0
-8 5 -1 -10 0
14 -5 11 -10 13 0
14 12 1 9 0
13 -9 0
12 9 -4 10 -8 -7 0
6 -11 0
4 12 -13 -3 0
3 14 0
14 2 -8 -5 3 0
-5 -8 0
-13 7 -11 9 4 0
9 -11 7 3 0
-1 -7 -9 11 0
-7 6 12 0
-7 -6 -12 0
7 6 -12 0
7 -6 12 0
9 3 14 0
9 -3 -14 0
-9 3 -14 0
-9 -3 14 0
