c seed 1930269098
c width 10
c scramble 0
c layers 1
c equalities 0
c ands 0
c xors3 0
c xors4 7
c layer[0] = [1..9] w=9 v=9 c=37 r=4.11 q=0
p cnf 9 93
-6 -5 -2 0
6 1 8 -3 0
3 4 2 0
9 -7 -8 5 0
7 -1 -9 -4 -3 8 0
-4 3 -5 -7 0
-2 8 6 4 -7 0
-1 8 3 5 -9 -6 0
4 9 -6 8 0
9 1 -4 0
-6 2 -8 0
-2 -9 6 0
-1 9 -8 2 0
-4 -8 -1 0
5 -3 2 0
6 -9 -3 -7 0
-1 9 0
4 -1 5 0
6 2 0
9 1 -5 0
5 -6 1 0
-1 5 2 0
-1 9 -2 -5 -7 0
8 -9 -6 5 0
-2 -5 3 0
-4 -2 -5 0
5 -7 2 0
2 -4 -1 -3 0
-8 7 -1 -6 0
3 -2 -7 -4 -1 6 9 -5 0
-5 -4 0
5 -1 -4 9 7 0
2 -3 1 -8 0
-7 4 8 9 -2 0
-8 -7 -3 -9 -2 -4 6 -1 0
1 -9 -3 6 5 0
-6 5 1 0
1 -2 -5 1 0
1 -2 5 -1 0
1 2 -5 -1 0
1 2 5 1 0
-1 -2 -5 -1 0
-1 -2 5 1 0
-1 2 -5 1 0
-1 2 5 -1 0
8 -9 -5 6 0
8 -9 5 -6 0
8 9 -5 -6 0
8 9 5 6 0
-8 -9 -5 -6 0
-8 -9 5 6 0
-8 9 -5 6 0
-8 9 5 -6 0
2 -9 2 1 0
2 -9 -2 -1 0
2 9 2 -1 0
2 9 -2 1 0
-2 -9 2 -1 0
-2 -9 -2 1 0
-2 9 2 1 0
-2 9 -2 -1 0
-8 2 -5 -6 0
-8 2 5 6 0
-8 -2 -5 6 0
-8 -2 5 -6 0
8 2 -5 6 0
8 2 5 -6 0
8 -2 -5 -6 0
8 -2 5 6 0
-5 6 4 -6 0
-5 6 -4 6 0
-5 -6 4 6 0
-5 -6 -4 -6 0
5 6 4 6 0
5 6 -4 -6 0
5 -6 4 -6 0
5 -6 -4 6 0
5 -4 -3 7 0
5 -4 3 -7 0
5 4 -3 -7 0
5 4 3 7 0
-5 -4 -3 -7 0
-5 -4 3 7 0
-5 4 -3 7 0
-5 4 3 -7 0
-8 -9 1 7 0
-8 -9 -1 -7 0
-8 9 1 -7 0
-8 9 -1 7 0
8 -9 1 -7 0
8 -9 -1 7 0
8 9 1 7 0
8 9 -1 -7 0
