c seed 1428064971
c width 9
c scramble -1
c layers 3
c equalities 0
c ands 0
c xors3 0
c xors4 0
c layer[0] = [1..7] w=7 v=7 c=24 r=3.43 q=0
c layer[1] = [8..16] w=9 v=16 c=59 r=3.69 q=0
c layer[2] = [17..25] w=9 v=18 c=58 r=3.22 q=0
p cnf 25 141
-1 -2 3 0
2 1 6 7 0
-6 5 -4 0
-3 -7 4 -5 0
-2 4 5 -7 -3 6 0
-2 6 4 0
4 -1 -2 7 0
-7 1 -4 0
-3 -7 4 6 0
-6 3 0
-5 -2 1 -3 -4 0
3 -2 -6 0
-5 2 0
-2 4 1 0
3 6 2 0
-5 1 3 -7 -6 -4 0
-6 -1 -4 -3 7 0
-5 4 3 0
6 4 -1 0
-4 3 -6 0
-6 -4 -5 -1 0
-6 2 3 -5 0
-3 1 5 -2 0
4 7 -3 0
-11 15 4 -16 0
16 2 -15 0
-3 -7 0
14 12 2 0
4 -5 13 0
-12 9 4 11 -13 -1 0
-1 -7 8 0
-1 -10 -8 -7 0
2 -9 10 0
-14 4 -2 12 -16 0
8 5 -15 0
-7 -3 0
-9 4 -5 3 0
-10 13 1 2 16 4 -5 0
15 -4 11 -1 -13 0
4 -1 7 0
2 -7 1 11 0
-9 5 4 12 6 -14 0
-7 5 0
-10 -12 -14 9 -3 -7 -5 0
-7 5 -9 6 -8 -16 0
-2 -8 1 0
-14 -8 -9 0
12 -10 6 8 0
3 -9 -1 14 0
-9 14 -10 0
2 14 10 0
-16 -11 -5 7 3 4 0
-1 -2 5 0
3 1 9 -5 -15 16 0
8 -13 6 2 10 -16 -11 0
-4 -2 -7 0
-12 -13 -16 10 0
8 -13 14 2 -9 -7 0
-2 16 0
-15 -16 2 0
7 15 -12 13 -14 0
-12 6 7 0
14 13 11 0
-6 1 10 0
-16 12 3 -5 0
5 -13 6 2 -9 4 8 1 0
-7 -6 -2 -14 0
1 16 13 11 -8 9 -12 0
-4 5 -2 15 14 0
3 10 -14 -1 4 6 0
12 -14 -4 0
5 2 -15 0
-6 -15 -4 0
-4 -7 15 14 13 0
2 -9 -7 4 -3 -15 -6 -13 -16 11 0
7 -8 -9 0
8 -4 -12 0
6 -7 -1 10 0
6 -14 8 0
8 -4 -11 16 -9 0
-14 9 -13 0
9 4 5 0
3 -6 10 -9 0
11 -23 12 -8 -25 0
-21 -19 22 2 -14 -18 -6 15 -1 0
6 1 8 -16 -2 11 0
25 15 24 0
-4 21 23 17 -13 -6 0
-4 19 20 0
-17 -24 -11 18 -16 0
5 -22 -20 -16 0
-19 -16 6 0
2 -14 15 0
-16 -18 -14 -8 0
-20 -12 -13 25 0
16 4 -25 0
21 23 14 19 -1 0
18 22 -14 0
-22 5 6 0
-3 -20 -23 -24 17 -14 19 21 9 -16 18 1 0
25 -15 -6 0
-23 -20 -19 0
-24 -23 16 -3 0
-18 -21 -10 0
8 -4 25 17 1 -7 0
20 -2 -5 25 0
23 8 24 0
-5 -3 20 11 -21 0
-9 -14 -3 -8 10 24 23 16 7 -25 -17 0
15 -25 19 24 4 6 0
24 4 1 22 0
6 -7 -21 0
25 18 -19 -2 -12 10 -6 20 0
4 18 -20 0
-20 -18 -11 0
11 -23 7 -18 0
-3 20 -19 -25 11 0
-3 20 2 -17 -6 -21 -24 23 -9 25 0
-12 -19 -15 -5 0
-22 12 17 -19 -21 0
25 -11 22 0
23 -6 22 3 0
24 -2 0
-13 -15 21 -17 23 0
25 18 -15 0
-18 3 -23 0
-7 11 -17 -9 25 0
24 22 2 -12 0
5 14 4 -8 3 0
-13 8 22 15 0
-7 10 1 0
-25 17 21 20 11 -5 3 0
22 -12 5 0
-22 4 24 -18 -10 21 0
1 -20 -22 18 0
-16 18 2 -11 0
18 -2 -23 0
3 -24 22 -6 0
-17 -25 -7 0
18 8 -5 0
18 -17 -12 9 0
