c seed 1187001283
c width 8
c scramble -1
c layers 2
c equalities 0
c ands 0
c xors3 0
c xors4 0
c layer[0] = [1..5] w=5 v=5 c=17 r=3.40 q=0
c layer[1] = [6..12] w=7 v=12 c=38 r=3.17 q=0
p cnf 12 55
3 4 2 -5 1 0
5 -2 -3 0
-4 -1 -3 0
4 -2 -1 -5 -3 0
1 -5 2 3 0
-3 -1 -5 0
-4 -2 -3 0
2 -1 0
-1 2 -3 -5 4 0
4 -5 0
-2 4 -3 0
-1 5 -4 3 0
-1 4 -5 0
-4 -1 3 -2 0
4 -1 -5 2 0
-1 -2 -3 0
4 -5 -1 0
-5 10 -1 0
4 -10 1 11 0
-1 -6 9 12 -7 -5 8 -11 0
2 4 0
6 -9 -12 0
3 4 1 -8 0
3 7 2 10 -1 -5 0
-4 3 12 -2 -11 0
12 4 9 -7 8 -3 0
-5 -1 4 0
-1 2 7 -12 4 0
-2 9 4 3 -12 0
5 -12 0
-2 -8 -5 0
6 9 -1 5 -2 0
5 -12 2 0
9 12 -1 0
-1 -10 11 0
9 -5 0
10 2 -4 -7 -12 1 3 0
3 7 -1 6 -5 4 -8 0
-8 5 -10 4 -9 0
-8 7 12 5 -10 0
-10 -3 12 -6 0
4 -9 8 0
10 -1 -12 0
-5 11 3 0
3 7 -9 11 6 0
11 7 -5 0
-6 1 9 10 -3 0
3 -8 -9 -11 5 0
-6 12 8 0
8 -5 -1 -6 0
6 11 -10 -2 -3 0
1 -2 5 4 -7 11 -12 0
-3 -12 0
5 -7 -1 10 0
8 5 -2 0
