c seed 1514610432
c width 10
c scramble 1
c layers 2
c equalities 0
c ands 0
c xors3 0
c xors4 0
c layer[0] = [1..7] w=7 v=7 c=31 r=4.43 q=0
c layer[1] = [8..13] w=6 v=13 c=48 r=3.69 q=0
p cnf 13 79
-3 -4 5 -2 0
-7 2 1 0
-1 7 -6 -5 0
3 6 4 0
7 1 -6 -5 0
-2 4 -3 0
-3 4 7 5 6 -1 0
-1 2 -6 -3 0
-3 -6 -4 -7 0
-5 -6 3 0
1 -3 5 0
7 -6 1 4 0
1 7 -4 5 0
7 2 6 0
6 4 3 5 -2 0
5 3 -1 0
-3 2 0
6 -2 -1 0
4 -5 -2 3 0
-3 6 5 1 0
2 4 -3 -6 0
-2 7 6 -3 0
-5 3 -4 -2 0
-7 -2 0
6 2 5 -3 -7 0
1 -3 -4 6 0
-5 3 1 -6 2 0
3 -2 -5 -1 0
-7 4 -3 -6 0
-1 6 7 5 0
7 4 -2 -6 -3 0
-12 -3 -4 0
-2 -5 8 0
2 10 7 0
-10 4 12 0
4 11 -5 13 6 3 0
4 9 -13 0
-8 -6 -9 -11 -5 0
-6 -8 12 0
11 9 -5 -10 0
-5 -8 1 4 -2 0
7 1 5 0
-4 11 10 0
-10 9 -13 -4 0
-3 8 -4 -9 -10 0
9 -3 -10 0
9 5 -6 -7 0
2 10 1 -9 -11 0
7 -9 8 3 -10 0
12 -9 -11 0
6 2 5 7 0
10 -3 -5 -12 -2 0
4 -13 12 0
9 -10 -8 0
-10 -5 7 -1 -2 -4 -9 -8 -6 -11 3 12 0
-12 6 4 0
9 -11 8 10 0
8 12 -6 0
10 -4 12 0
-1 -11 0
-11 -10 12 0
-11 6 4 13 0
5 6 7 8 -2 3 10 0
-8 11 10 4 0
-7 -9 -12 4 8 6 0
5 1 12 -3 8 0
-11 3 0
-2 13 6 -5 -4 0
11 8 -4 0
12 13 9 -4 10 0
-4 -7 -11 0
-1 -9 8 3 -11 -2 0
5 12 10 -13 3 0
12 -13 0
-11 -10 0
3 -7 9 -12 -5 0
12 9 -11 0
-12 -6 -5 2 0
9 -10 2 -3 -12 0
