c seed 1070233937
c width 20
c scramble 0
c layers 3
c equalities 0
c ands 0
c xors3 0
c xors4 0
c layer[0] = [1..20] w=20 v=20 c=84 r=4.20 q=0
c layer[1] = [21..33] w=13 v=33 c=115 r=3.48 q=0
c layer[2] = [34..50] w=17 v=30 c=114 r=3.80 q=0
p cnf 50 313
-7 -19 5 -1 20 0
19 7 -2 6 0
17 13 -12 0
-20 -16 -10 18 0
-3 -9 12 2 0
-8 -14 -17 16 0
-15 1 -4 9 10 0
-11 4 8 -6 0
3 11 -18 0
15 14 -13 -5 0
1 -9 -12 5 0
20 19 -18 0
15 6 19 0
11 1 -4 -5 0
-14 -1 9 0
-1 6 4 14 16 0
20 18 4 13 0
-19 -10 -1 -15 -14 -17 0
15 -20 -1 10 4 -6 0
11 6 19 8 0
17 9 4 0
-4 9 19 -7 -3 16 0
-19 17 9 0
-18 -2 15 3 -8 0
19 -13 2 -11 0
-4 -9 18 -1 0
-2 -3 -18 0
-8 1 -19 2 0
-6 -17 -8 -10 0
17 15 -16 0
5 -10 -14 0
15 9 -17 16 0
-15 7 2 10 -18 0
-2 -15 -14 -20 18 -5 0
20 1 -18 0
-14 18 7 0
-7 -20 -11 -10 15 -2 -3 0
12 -19 9 -2 -13 -18 0
-19 -9 1 6 12 -10 3 15 5 -4 0
-16 -18 -5 17 0
-7 -16 13 -10 -17 8 15 6 0
-7 -1 3 0
-20 18 6 -14 0
-16 6 20 -4 -5 17 -11 0
-13 18 17 0
2 18 -9 0
20 6 8 4 0
20 17 -7 0
2 -3 -20 4 0
13 -6 5 14 0
5 -11 -10 -19 4 0
9 -13 -17 0
-14 12 -8 3 0
1 -8 2 -13 0
-7 5 -4 -11 0
-11 -13 16 0
17 -8 -10 0
-17 -6 -12 -1 0
10 -11 -20 -16 -18 0
16 -6 -13 -17 -18 -9 0
-18 13 -15 0
1 9 4 0
8 -12 18 17 0
5 -8 -10 0
20 19 -9 -14 -4 16 13 0
10 12 3 -20 0
-20 -16 3 0
10 9 -6 0
18 4 10 -13 0
4 5 18 -11 -17 1 0
-3 12 -16 -2 -14 -17 0
-5 -13 12 9 0
16 -8 5 0
1 -18 10 0
8 19 -20 0
14 -15 -11 0
-7 10 -16 15 18 0
19 -15 -2 -11 0
-16 -20 11 -15 -8 0
15 13 4 -18 0
-16 -2 6 -10 0
13 17 -18 2 -10 -19 4 0
13 6 11 12 14 0
-9 -14 1 0
-22 -9 -18 0
23 7 27 26 0
-14 21 8 0
-33 8 18 -12 17 0
-32 -4 17 31 0
-13 12 -19 0
-23 29 8 -11 0
11 -19 13 0
-29 -19 6 30 22 0
2 28 -4 -9 0
33 14 -7 24 0
-4 -30 -31 -26 0
-27 7 -24 -25 0
32 -13 1 -5 25 -21 0
-28 -24 26 -20 0
25 -20 -18 0
23 -19 -14 6 -15 -8 0
30 -8 -31 0
-10 -30 5 0
6 28 19 26 -32 7 0
-24 -22 -31 0
25 31 -15 -24 -1 -18 0
25 -22 27 31 5 -12 0
21 23 -10 0
20 26 33 2 -19 0
16 -23 -27 1 0
-24 -10 -30 31 0
-16 21 -23 0
-14 -19 21 -23 0
17 3 -33 12 25 0
-22 27 -18 7 0
-15 5 -10 0
-23 -12 -25 0
-6 -30 -11 -25 0
-25 4 -17 0
32 8 -5 25 0
1 -33 -24 13 -19 -3 -17 0
-7 -17 6 15 0
-7 18 21 14 15 0
24 27 10 0
-21 22 14 25 -27 0
24 -7 10 -19 -29 -33 0
3 24 -30 0
26 -28 -16 6 -25 0
-27 -28 -31 0
-10 33 21 29 22 -20 30 32 0
24 -31 -10 -12 25 11 0
-29 21 7 -23 -32 30 6 -1 0
2 -22 6 0
-26 -5 28 0
32 -18 -10 0
32 -31 20 -24 33 0
20 23 -11 7 31 -22 -2 12 0
-24 15 -27 0
29 33 -13 10 0
-28 -9 -22 0
17 -26 28 20 32 0
-12 -29 30 -18 19 0
16 -26 -32 9 -22 -27 18 0
27 11 -21 13 0
-29 -2 9 0
29 27 14 5 0
-5 -28 7 11 -22 0
-6 29 25 31 30 0
-18 -17 30 0
-16 -24 -28 0
16 33 9 -5 0
-22 -3 0
23 -25 -21 -29 -27 0
-26 14 23 -1 5 0
-28 20 -24 33 0
33 -20 -29 -32 -30 9 0
17 -21 -13 0
-21 9 -13 -28 26 0
20 -22 0
-30 -23 -32 27 -28 -21 -18 0
7 -28 -1 0
-10 25 1 19 33 32 -3 -28 0
12 -1 33 25 0
-14 -27 0
-17 13 4 0
-19 -13 -33 -23 0
6 -20 -30 0
27 22 -21 -30 26 0
21 28 8 0
6 -13 8 0
9 -10 -24 5 0
23 24 -19 12 22 32 0
24 20 3 -7 0
32 -6 2 21 -12 -16 -30 0
-16 -26 29 11 10 -1 0
16 -22 0
-27 -7 -15 5 0
3 -10 33 0
-27 15 -26 0
18 19 30 31 26 0
-3 -18 31 14 -32 0
21 -20 -15 0
21 -24 -23 26 25 -3 0
29 -18 2 0
-6 1 -22 21 0
33 5 15 16 0
1 28 -11 0
25 -2 -8 -19 12 0
-16 -31 32 0
14 24 22 0
8 10 13 -31 -4 -15 0
25 -10 -4 0
12 -27 30 21 -32 -22 0
-27 -29 4 21 0
10 -30 21 0
-27 -9 -7 26 30 0
32 24 18 0
16 -15 -3 -10 -28 0
-21 17 14 0
-49 36 -48 0
45 -16 -17 33 0
-21 -50 7 -45 29 0
46 30 18 0
-39 -31 50 0
-44 31 0
24 -38 48 37 0
-23 -18 -4 16 -30 -12 0
-19 33 42 0
-42 47 -5 0
-30 12 -41 0
-46 44 -37 -2 32 0
40 30 43 0
30 49 -17 39 -20 4 -36 12 41 -23 16 15 -34 0
-3 -23 38 0
-47 -35 -11 -40 0
-43 34 35 0
-43 -47 -13 26 -48 20 0
11 -2 39 38 -5 24 0
-45 -23 8 0
41 42 46 0
-48 -25 -50 -37 31 -7 30 -46 -6 -20 0
-13 -6 -26 -34 0
5 -22 -27 -25 -26 8 21 -45 12 0
-38 -4 41 29 33 0
45 -38 49 44 29 30 42 36 -4 -50 -3 -14 -5 -22 -31 35 -34 0
38 -39 34 -15 0
25 -30 -32 44 41 -33 0
39 31 29 35 0
-14 -47 49 25 1 -22 0
5 30 -43 0
-20 -13 6 0
43 35 -45 -23 29 37 0
-36 49 -25 41 -24 0
47 -2 7 -45 -22 0
-27 39 40 42 5 -50 0
-34 -48 0
-28 -39 -12 -46 6 0
-15 37 18 -12 0
50 48 34 -3 -13 -18 -15 0
-4 -40 -22 -24 0
-39 -36 3 -21 0
-23 37 -6 0
-5 30 36 46 0
42 49 36 0
19 30 -29 43 5 -28 -21 0
5 16 -20 -36 -42 -41 0
44 48 -46 -27 23 33 43 -25 41 0
36 35 -21 28 0
-49 34 24 35 -48 -10 -12 0
-9 36 26 21 0
2 37 -17 47 44 48 36 0
-38 -30 -34 0
-50 37 -14 26 0
43 -9 -20 6 38 47 36 -46 0
-25 50 -32 -13 0
37 -47 -33 9 -1 -49 23 4 0
41 -36 -44 -38 2 1 0
30 -41 13 0
48 -2 45 5 23 0
-31 42 -14 45 0
-29 45 -9 10 47 -39 -36 35 0
32 -45 0
43 -40 0
4 -38 26 -28 11 -37 5 -35 -40 -3 0
48 -50 -27 0
23 33 -30 0
-16 46 50 15 0
16 -31 -28 -9 -2 -46 0
-40 20 -48 0
-39 -30 -31 -41 17 -26 44 -7 42 0
28 -41 -17 -10 0
13 16 44 -43 -20 0
-27 9 -7 39 -21 -16 10 -45 -26 0
45 -49 -37 -44 -11 0
-15 -50 5 -41 0
35 44 45 39 -46 -36 14 31 0
-45 -7 -15 0
-32 -46 48 -18 -13 -9 44 -24 -7 29 -19 -11 0
12 24 -7 0
31 36 41 30 42 10 0
-28 -18 12 7 48 0
16 46 31 38 47 0
-46 39 44 0
22 19 12 -24 0
43 -27 -45 24 0
-46 -37 -22 5 0
-34 -38 -23 -24 28 5 -10 47 -48 0
6 -34 -20 0
40 -23 50 25 5 49 18 42 -34 -32 0
9 -13 28 -5 -30 -38 -21 2 7 0
46 -10 -17 22 11 12 41 -40 26 43 -7 -2 0
-16 25 26 -7 -49 37 -50 0
-47 -40 0
-15 32 -48 11 0
-46 11 -44 0
50 -13 -44 -6 0
38 -27 -34 26 0
30 -38 10 46 45 14 25 43 0
43 1 41 -48 -24 31 34 36 0
41 32 -26 -27 -2 49 0
12 -49 32 0
-46 -23 -45 0
-4 -20 6 18 29 -42 19 30 0
15 50 8 -21 0
-9 -38 -31 0
-50 43 36 0
-49 -32 15 38 -9 -35 37 0
37 -24 -31 0
-5 48 -7 34 0
43 48 -26 -29 0
48 49 -44 37 1 3 5 41 0
-42 -46 37 0
26 -40 -45 -49 -17 0
