c seed 1046179140
c width 6
c scramble -1
c layers 3
c equalities 0
c ands 0
c xors3 0
c xors4 0
c layer[0] = [1..5] w=5 v=5 c=19 r=3.80 q=0
c layer[1] = [6..10] w=5 v=10 c=35 r=3.50 q=0
c layer[2] = [11..15] w=5 v=10 c=36 r=3.60 q=0
p cnf 15 90
-1 -4 -2 0
3 4 5 0
-5 1 -3 2 -4 0
3 5 4 0
-1 5 -2 0
4 -1 2 5 3 0
-3 4 -1 0
-4 -3 -5 0
-1 -3 -4 0
2 -5 -3 -1 -4 0
-3 2 -1 4 0
-1 -2 -3 0
-4 2 -1 0
3 -1 -4 0
3 5 2 0
-1 -5 -3 4 0
-3 -4 1 5 0
-3 -4 0
-4 1 3 0
2 4 0
-7 4 10 2 0
-6 3 4 7 -9 -8 0
9 8 5 6 -10 -4 1 0
4 -7 5 6 -10 3 8 -2 0
-4 -7 3 0
-7 -6 9 0
-1 3 5 0
3 -10 4 -7 0
9 -10 -2 8 5 6 0
1 7 2 0
-5 8 3 10 0
7 5 -10 0
4 2 -3 0
-4 -8 -7 -6 -3 0
6 -8 7 -10 -2 0
-8 5 0
4 5 -6 0
-1 -6 10 -7 8 -9 0
8 -1 -5 -3 0
-2 -10 8 0
-4 -6 10 -2 -8 -1 -7 0
1 -3 8 2 9 -7 0
10 5 2 0
1 6 5 0
-10 4 7 1 0
7 -10 6 0
8 7 1 0
-4 1 7 8 0
-7 -5 -1 -6 0
-10 -7 -3 0
4 1 10 8 0
4 7 5 -9 0
5 1 4 3 10 0
10 -3 5 -4 0
11 12 14 5 0
-8 15 -11 0
-9 -2 6 -14 -13 -12 -8 0
3 -15 0
13 -11 -15 9 -4 0
11 -12 2 0
12 -10 -6 0
1 8 3 0
8 5 -9 -3 -14 15 0
-9 -5 -4 -3 1 -12 11 6 -15 2 0
15 10 -14 -4 0
-11 -14 -15 0
5 -13 -14 -15 0
-7 13 5 0
-4 15 -12 -6 3 0
1 8 12 2 -15 0
-11 -7 12 14 -15 0
14 -8 -5 11 3 9 -12 -15 0
15 -1 7 9 5 0
-6 8 14 -13 -2 0
-13 -10 3 11 -1 12 0
-15 5 -8 3 -6 -9 0
6 -13 14 10 -7 -9 -1 0
7 -2 -8 -13 0
11 8 10 12 -14 4 0
15 3 14 0
11 -7 3 -8 -13 -15 4 0
-10 11 9 0
-7 -13 -15 -3 0
12 2 10 0
-6 -9 -14 -13 0
11 8 13 0
6 -13 15 0
-11 3 12 -15 0
4 11 5 0
8 9 -12 0
