c seed 2072671621
c width 6
c scramble -1
c layers 2
c equalities 0
c ands 0
c xors3 0
c xors4 0
c layer[0] = [1..5] w=5 v=5 c=18 r=3.60 q=0
c layer[1] = [6..10] w=5 v=10 c=37 r=3.70 q=0
p cnf 10 55
-1 -2 -4 5 0
4 -5 1 -3 2 0
3 -1 4 2 0
5 1 0
5 4 3 -2 0
-2 1 0
2 -5 -1 0
-3 -1 -5 0
-1 -3 2 -4 0
-5 1 0
1 5 -3 2 0
1 5 4 0
5 3 1 -4 0
3 -5 -1 0
-3 -1 2 0
-5 1 -3 2 0
-3 2 -5 1 0
1 -4 0
-1 9 -5 0
3 -8 0
-7 -6 3 -1 8 -2 4 10 0
-9 -3 2 5 4 -10 7 0
6 9 0
-10 -5 4 0
6 -9 2 4 0
8 9 -6 1 -7 5 -10 0
9 6 -8 -3 7 -4 0
-5 8 3 1 -7 -6 0
1 -6 9 3 0
10 -6 2 0
-9 -8 0
-1 -10 -9 8 -6 0
-8 3 9 0
9 -3 6 -2 0
1 -7 0
2 9 -10 0
3 -7 -6 0
-2 -8 9 0
-2 -4 -5 -7 1 -3 0
3 -1 5 0
-7 8 -6 -3 4 -1 -5 0
-5 -3 -10 0
4 3 9 0
-10 2 5 0
-7 -10 0
1 6 0
-8 4 1 0
-6 3 -2 0
7 9 -10 8 2 0
3 5 0
8 -5 1 -4 9 0
10 6 -4 0
1 3 8 9 0
8 4 9 0
-5 4 1 0
