c seed 310852807
c width 10
c scramble -1
c layers 2
c equalities 0
c ands 0
c xors3 0
c xors4 0
c layer[0] = [1..10] w=10 v=10 c=32 r=3.20 q=0
c layer[1] = [11..15] w=5 v=15 c=66 r=4.40 q=0
p cnf 15 98
-7 8 3 10 6 0
-8 4 5 0
-5 1 -10 -9 -2 -4 0
-1 9 2 7 -6 0
-3 5 -10 -2 8 -6 0
4 9 -8 0
3 -7 -2 -8 9 -1 0
-1 8 -3 0
3 -6 -8 0
-1 8 5 0
6 9 0
-7 -4 -1 0
1 -7 -10 8 2 0
-8 3 4 0
-1 -6 2 -9 0
-10 -7 -3 0
9 -4 -3 5 6 0
10 -8 -4 9 7 0
-3 5 2 -8 0
-4 5 -9 -8 -2 -7 0
-2 5 -9 4 0
5 -10 -2 4 9 3 6 -1 0
5 -2 -10 8 0
2 -8 1 -3 0
5 -1 0
5 10 6 0
7 10 3 5 0
1 5 -2 7 0
6 -1 5 0
1 5 2 0
3 9 -7 0
2 7 5 -10 -4 0
5 2 -15 3 -9 10 0
-10 7 -13 0
12 5 -4 0
14 -12 -10 15 0
-14 -5 -11 -7 0
13 -4 11 5 0
12 -9 4 13 8 0
5 -4 -10 -7 -15 14 0
-1 15 -9 0
1 15 -10 -13 0
-8 -3 10 0
12 13 0
-12 15 -11 13 -7 0
11 -4 0
1 -12 0
11 2 4 0
2 13 -4 15 -1 -12 -11 0
5 14 13 0
-3 -14 4 -6 0
-7 -2 -12 -6 -8 11 0
-13 2 14 -15 0
-4 -11 0
-15 14 -9 13 10 -12 0
5 -15 7 0
9 1 -13 14 -15 0
-6 10 14 7 -4 -5 15 8 0
-14 -3 5 0
-12 -11 -15 13 14 -8 1 -2 0
11 12 -4 13 15 5 0
8 13 3 0
-3 11 -7 0
15 12 4 0
-15 -12 -9 -1 14 4 -5 0
5 -13 -11 0
4 14 -10 0
-14 -5 13 0
-7 -11 -3 0
6 -3 12 -13 14 -5 0
-15 -13 -4 -11 0
-14 -2 -12 0
-14 3 2 10 -12 0
-2 14 -10 -15 0
3 -1 12 -8 -7 -2 -10 0
-4 -15 -2 10 -3 12 -6 -14 0
-14 6 -7 10 -12 0
-10 -11 -1 0
12 7 3 -13 0
-2 -4 -7 -15 0
-12 -14 0
-2 -3 12 0
5 13 -1 12 -10 0
-13 -8 7 3 -6 12 4 -14 0
-3 -6 -1 13 0
-3 5 -15 0
-14 11 -2 -13 6 -1 -9 0
3 -9 11 0
-13 -15 -5 1 11 12 -7 0
-14 12 -5 0
-8 15 6 10 -12 7 0
15 -5 13 0
4 -14 0
-15 2 12 -13 0
-1 -11 -12 0
-4 15 11 0
-8 -13 15 -12 7 0
-13 -6 -14 0
