c seed 593116011
c width 8
c scramble 1
c layers 3
c equalities 0
c ands 0
c xors3 0
c xors4 0
c layer[0] = [1..6] w=6 v=6 c=22 r=3.67 q=0
c layer[1] = [7..11] w=5 v=11 c=41 r=3.73 q=0
c layer[2] = [12..19] w=8 v=13 c=56 r=4.31 q=0
p cnf 19 119
-6 3 -2 -1 0
4 1 5 0
6 -5 2 0
-4 -3 5 1 0
2 3 -4 5 6 0
3 -2 6 0
-2 6 3 5 0
6 -4 5 1 0
1 -5 4 0
-5 -6 0
-6 -3 5 2 0
-6 -1 -2 0
-2 3 0
-6 -1 0
4 6 0
-6 -3 -2 1 0
-2 3 1 0
4 -3 0
-1 -5 -3 -6 0
5 -2 0
3 1 6 0
-4 -2 5 0
9 11 7 10 0
-2 1 -8 0
-5 -11 4 -3 -7 -2 -6 -10 -9 8 0
3 4 -6 9 8 0
4 11 7 -8 5 0
-2 -7 0
-9 -11 5 -2 7 8 6 0
8 -6 7 0
10 -4 -11 1 6 8 0
-1 -9 -7 8 0
7 2 0
-8 -10 -7 0
-5 10 -1 -3 0
10 -11 -1 7 0
8 -6 2 0
1 2 10 0
6 -11 2 1 0
11 10 8 -1 -4 0
-1 9 -2 -4 0
-9 -1 7 2 3 0
-10 3 4 -11 9 7 2 5 8 0
8 4 10 9 5 7 0
-7 -4 8 -3 0
3 8 -9 0
2 -11 0
-11 7 1 0
3 7 -9 5 -1 -2 -4 -11 0
-7 8 6 -9 3 0
6 -1 -9 8 0
7 -11 2 0
3 -2 11 0
3 4 -2 8 -1 0
10 7 0
3 -5 -7 -4 0
4 -6 -2 -8 0
-8 -7 -3 0
1 -5 4 7 -8 0
1 -10 -2 5 0
9 -7 4 -1 -3 0
11 -10 1 0
8 -4 -9 7 11 2 0
-16 11 5 18 14 0
-14 -9 -19 -18 13 -6 17 16 15 -8 -12 -4 0
7 -4 12 -10 19 0
9 -15 -11 -17 2 0
-13 7 -10 0
9 -13 15 0
14 19 10 0
-16 -5 -17 0
-13 18 -7 0
-9 15 -19 0
-5 14 19 17 0
4 8 17 9 7 -15 18 -12 -11 0
-18 -4 -14 0
2 -5 -15 19 0
1 -13 15 0
10 18 -1 0
-12 -8 16 -7 10 -14 0
-10 8 -2 6 0
-14 2 -19 0
16 7 13 -9 11 4 19 0
-6 -5 -17 0
-7 8 -14 0
-18 -9 12 1 -15 3 6 17 0
-3 12 5 0
7 18 -5 19 -11 0
6 1 -8 0
-9 13 -16 0
17 5 3 11 0
-15 -5 -12 0
-4 -12 -18 0
-13 -12 -10 0
-4 6 11 0
16 -14 -17 0
-16 -18 -10 -17 -8 0
-9 -14 -8 19 0
-18 12 7 -11 0
14 13 2 16 -8 0
19 13 8 9 0
-17 11 18 0
19 11 10 14 4 2 13 0
-17 19 -3 0
-12 -17 8 -6 0
-12 11 8 0
13 12 -17 0
-15 -4 19 -16 0
-4 14 -2 0
-6 -11 17 7 0
9 -6 17 0
13 -3 9 10 6 5 -16 7 0
-10 7 9 0
-18 8 -17 -16 0
-9 -15 8 10 0
16 -10 -6 -3 0
-16 4 18 0
2 -1 -13 -11 10 0
14 -15 2 0
