c seed 37226050
c width 6
c scramble 0
c layers 2
c equalities 0
c ands 0
c xors3 0
c xors4 0
c layer[0] = [1..6] w=6 v=6 c=22 r=3.67 q=0
c layer[1] = [7..11] w=5 v=11 c=42 r=3.82 q=0
p cnf 11 64
-3 2 4 1 5 -6 0
-1 -5 3 -2 6 0
-4 -1 -2 0
1 -6 0
4 -5 1 0
3 5 4 1 -2 0
6 5 4 -3 -2 -1 0
4 -2 1 0
3 0
1 -5 -4 0
1 -5 2 0
-3 2 -1 -4 -6 0
-6 4 5 3 0
-6 -1 -4 0
4 -5 -6 0
-2 4 -5 0
-4 -3 0
-3 5 -6 0
1 -3 -5 0
1 -3 6 0
6 -5 1 4 0
-3 -2 0
-9 1 5 0
-10 -2 -11 7 0
-4 -8 9 10 -7 11 -2 0
8 5 11 3 7 0
7 10 6 -5 0
-9 -10 7 0
1 8 9 0
9 11 -8 0
-7 -11 8 4 -5 0
-4 -5 11 0
-2 5 4 -11 10 -9 0
1 -6 10 3 9 0
6 8 10 -11 9 0
5 -8 -1 4 0
4 -9 5 2 -8 0
8 6 -9 -11 0
-4 -8 -9 0
-6 -5 1 2 0
-2 4 10 0
5 -4 3 0
-10 11 2 -7 9 0
7 11 -5 -1 0
-6 -7 -11 0
-9 4 8 1 0
-6 8 -5 -2 -10 0
-1 -2 5 6 -7 11 0
7 -3 -5 1 -8 -4 6 9 11 -10 0
6 9 -2 0
9 1 7 2 0
1 6 2 -4 5 0
3 11 7 4 0
8 5 2 -4 0
-7 -3 5 11 0
2 -6 -11 -10 8 4 -5 0
1 -9 0
-6 5 1 0
7 2 -9 0
-11 -2 -9 10 0
-1 -2 3 0
-2 4 -7 0
4 10 1 0
-5 1 2 4 -7 6 3 -11 0
