c seed 994775624
c width 5
c scramble -1
c layers 2
c equalities 0
c ands 0
c xors3 0
c xors4 0
c layer[0] = [1..5] w=5 v=5 c=15 r=3.00 q=0
c layer[1] = [6..10] w=5 v=10 c=37 r=3.70 q=0
p cnf 10 52
-2 5 -4 1 0
-3 4 2 -1 -5 0
3 -5 -1 0
-2 -3 -4 1 0
4 -5 0
-5 3 -1 0
-1 -5 2 0
2 3 -5 0
-2 -1 3 4 0
-5 -3 0
-4 -3 -5 0
2 4 3 -1 0
-5 1 3 4 0
-3 1 4 -2 0
-2 -5 1 0
1 5 6 0
8 -10 -1 0
-6 5 -8 -9 0
-1 -4 3 0
2 -7 -4 0
10 7 9 0
-3 -6 2 9 -7 0
-5 -6 -3 0
9 5 0
2 -9 -4 0
4 5 -2 0
5 -1 7 10 -6 9 -2 4 0
2 -7 4 0
-4 5 9 10 0
5 3 -6 -10 0
-8 1 10 2 0
1 -2 4 0
5 9 -1 -10 7 0
-7 -8 -10 0
-5 -7 10 -3 2 0
3 2 10 -5 0
4 -7 1 9 0
-10 -4 -1 0
3 1 2 0
6 7 -2 4 9 10 0
-1 9 5 8 4 0
7 5 9 0
-10 9 7 -2 8 0
-4 5 -9 -3 8 0
-10 -3 8 2 0
-2 -1 0
7 -9 -5 -3 -2 1 -4 0
10 -6 2 0
8 9 -1 -7 0
3 -9 -4 -6 0
-4 -6 0
9 3 1 0
