c seed 879770200
c width 5
c scramble 0
c layers 2
c equalities 0
c ands 0
c xors3 0
c xors4 0
c layer[0] = [1..5] w=5 v=5 c=19 r=3.80 q=0
c layer[1] = [6..10] w=5 v=10 c=30 r=3.00 q=0
p cnf 10 49
3 -1 -2 4 0
-4 -5 2 0
5 -3 1 4 0
-3 2 1 0
-5 1 3 0
3 -5 0
3 5 -4 -2 0
-4 1 2 0
-3 5 4 0
-4 2 -1 0
-2 4 -5 -3 0
3 2 -5 4 1 0
-4 5 -3 -2 0
1 2 0
-1 5 -2 0
2 1 0
5 4 -1 0
-5 -2 -1 -3 0
2 1 -3 -5 4 0
10 2 -4 -3 5 0
-10 7 6 0
-7 5 1 0
-6 4 -8 5 0
-5 8 -9 -2 -3 0
1 9 7 -4 0
10 -5 -7 -4 9 -2 0
-5 3 4 8 1 0
-7 9 4 2 6 1 10 0
-2 4 8 -3 0
7 -1 -3 -5 10 6 0
-4 6 -8 -1 2 10 0
-5 -2 3 -10 0
9 5 -3 -2 0
6 -5 0
7 9 0
-2 -9 -4 0
5 -2 -10 1 0
1 -7 0
-4 7 0
1 -10 -8 0
-10 -5 8 0
-7 -8 -10 -5 0
-9 -2 -5 10 -3 0
1 6 0
-6 9 5 -7 -3 -4 -10 1 -2 0
-5 -4 -6 9 2 -3 1 -7 0
-3 1 -6 -2 5 -7 0
9 -1 -8 -6 -4 -5 0
10 -6 0
