c seed 2119709872
c width 5
c scramble -1
c layers 2
c equalities 0
c ands 0
c xors3 0
c xors4 0
c layer[0] = [1..5] w=5 v=5 c=17 r=3.40 q=0
c layer[1] = [6..10] w=5 v=10 c=41 r=4.10 q=0
p cnf 10 58
2 -1 4 5 0
-3 1 0
-4 -2 -5 3 1 0
3 2 4 -5 0
2 -3 -1 0
3 -2 5 4 0
-5 4 1 0
4 5 1 2 0
1 -3 0
-3 -5 1 4 2 0
-3 4 -2 0
3 -5 -4 0
-5 -3 4 0
1 -3 -4 0
2 5 -3 4 0
-4 2 -5 0
-1 4 5 0
4 -9 6 3 2 -8 0
10 5 -4 1 8 7 -6 9 0
2 3 -7 0
-10 -1 6 4 9 8 0
7 1 -6 3 2 -10 -8 9 0
-8 -5 -4 1 0
6 -2 8 0
1 10 4 0
3 -2 -9 10 0
-2 -1 4 9 8 0
4 9 10 -1 5 8 3 0
3 5 1 9 0
-8 10 6 0
-9 -10 -7 -3 -1 -4 8 0
4 -10 6 -1 -9 0
7 -10 6 4 -1 2 0
-1 5 -9 0
1 -6 0
-4 -8 -1 3 -10 9 0
-8 -10 0
3 9 8 -2 -4 5 -7 -6 1 10 0
10 -2 -7 0
1 -2 -8 9 0
5 -9 -4 0
-8 3 -1 -7 2 -9 5 0
6 -3 9 4 -10 0
10 -5 0
-7 3 -5 9 4 0
-9 8 -10 6 0
-3 -10 -6 -4 0
10 -2 -8 4 0
9 -2 1 8 0
-4 3 0
-4 2 6 -9 0
8 -5 0
5 -2 6 4 0
1 -5 0
7 2 -8 0
9 -4 1 8 7 6 0
6 4 10 9 3 0
-3 -5 4 0
