c seed 1611130013
c width 5
c scramble 1
c layers 2
c equalities 0
c ands 0
c xors3 0
c xors4 0
c layer[0] = [1..5] w=5 v=5 c=18 r=3.60 q=0
c layer[1] = [6..10] w=5 v=10 c=42 r=4.20 q=0
p cnf 10 60
-5 3 -4 0
-3 -2 4 0
1 5 2 0
-1 4 5 0
-4 -3 -2 0
-3 -1 5 0
1 5 2 4 0
3 -5 0
-2 -5 4 0
5 -1 0
1 3 2 0
4 5 1 0
-3 -4 -1 0
2 5 -3 0
-3 -1 -2 0
-5 -2 -1 3 4 0
4 5 2 -1 0
-4 0
-9 2 -4 8 0
-4 5 2 7 0
9 -10 -8 -7 0
1 6 10 0
-6 -5 8 -2 -7 0
8 -1 9 0
-7 4 -1 -9 0
2 8 0
8 -9 2 0
-1 -4 -9 10 -2 0
1 8 -9 0
3 7 -2 1 8 0
3 1 5 0
4 5 0
-5 7 -6 0
7 9 -10 0
-4 -5 1 7 -2 0
-8 -1 5 -6 0
-2 -1 -3 -9 -10 0
-1 -5 -9 3 0
1 -6 7 2 0
7 -10 8 0
1 10 -8 2 0
-2 -3 -6 1 -10 0
6 5 -7 9 -4 0
-6 7 -5 0
7 -8 -4 0
9 5 -7 10 -3 0
-8 -4 9 0
-2 6 7 -8 -4 0
10 5 8 6 4 0
-7 8 -9 0
3 2 -6 1 5 0
-2 -6 4 0
-10 2 -1 0
-9 6 4 0
5 -10 7 2 0
-9 4 -6 0
-8 -4 2 0
10 2 -7 -1 8 0
3 10 0
8 4 3 2 -9 0
