c seed 197914969
c width 10
c scramble 0
c layers 1
c equalities 0
c ands 0
c xors3 0
c xors4 0
c layer[0] = [1..10] w=10 v=10 c=30 r=3.00 q=0
p cnf 10 30
2 -8 6 0
-5 1 10 0
3 9 0
-9 8 -3 -2 0
-4 -10 -1 0
-7 -6 5 0
4 7 -9 0
-1 8 -7 0
7 -9 0
-8 7 -9 0
5 6 4 0
10 3 -2 -5 6 0
-1 4 10 -6 0
9 -5 7 -1 0
9 6 0
-3 1 7 -9 -4 0
-5 -2 -3 1 -7 4 0
1 6 -10 -9 8 -3 -2 0
2 -1 -10 0
6 1 3 -5 8 0
2 6 -10 9 0
-8 5 9 -6 0
1 7 -4 -6 0
7 5 -1 -3 2 8 0
-5 -2 3 0
-8 -2 -10 -6 0
-8 1 5 0
2 6 9 0
-7 8 5 -10 -3 -2 -9 0
-6 -8 1 0
