c seed 1326851126
c width 9
c scramble 0
c layers 3
c equalities 0
c ands 0
c xors3 0
c xors4 0
c layer[0] = [1..9] w=9 v=9 c=38 r=4.22 q=0
c layer[1] = [10..15] w=6 v=15 c=59 r=3.93 q=0
c layer[2] = [16..24] w=9 v=15 c=46 r=3.07 q=0
p cnf 24 143
2 -1 4 0
-5 -6 -3 0
5 -9 3 0
-8 6 7 0
-4 1 8 -7 9 0
-2 8 6 0
-7 2 -6 -8 -3 1 0
9 6 3 2 4 0
8 3 4 2 1 -9 6 0
-6 2 -3 0
-8 -9 2 -6 -1 5 0
2 3 0
-5 -6 3 -9 4 0
7 -6 -8 5 0
3 -5 2 6 -1 0
-4 2 1 0
-8 -7 4 2 9 3 0
-4 -2 -1 0
4 9 -2 0
4 -2 -5 0
-9 5 0
-9 -5 3 0
1 -2 -8 4 -9 0
2 -9 -8 0
9 -5 6 -2 0
-4 -5 9 3 -6 0
8 5 4 -3 6 0
5 -1 -3 0
3 4 -2 7 0
-9 -1 0
2 -7 8 0
3 7 9 2 0
-1 7 6 0
-2 4 5 -1 8 -7 -9 -3 0
2 6 0
-5 7 4 0
-1 5 -4 -9 0
-8 4 3 -6 0
2 -14 -12 0
14 10 13 7 0
-10 12 -5 9 0
-11 6 -13 0
-15 -2 -7 0
15 -7 11 0
-7 5 12 0
-12 -1 -13 9 0
-14 -5 -12 0
1 13 2 0
10 -13 -1 0
-8 1 -10 6 0
-6 -7 -4 0
14 -9 -3 2 6 5 11 -12 0
12 -15 -4 -5 -1 0
-15 13 -12 10 14 -9 0
-15 -9 3 -10 0
6 -12 14 0
5 -14 0
5 -1 -2 0
14 9 -5 4 -12 0
7 -5 15 0
-15 12 10 0
-8 10 13 0
10 -3 14 1 0
-10 11 12 -15 -13 -2 0
-8 -9 -2 -4 0
4 -2 -1 7 -8 -6 -10 -11 0
-5 -12 -3 0
11 -9 6 13 0
4 15 -10 7 6 -5 -14 0
11 -6 -3 -8 10 9 -4 15 0
12 8 -15 11 0
-14 4 0
-10 6 0
6 -14 7 5 0
6 12 15 0
4 -14 12 3 -15 -10 0
6 -13 12 -5 1 -4 0
-13 15 -12 11 0
-15 -9 -2 14 10 8 0
-7 15 -12 4 0
7 14 13 15 8 6 0
-13 -2 -9 0
-15 3 10 12 -1 0
10 -13 12 0
11 -12 10 0
-3 -6 11 -2 -8 -1 0
-10 6 -2 0
-6 14 -10 -9 -15 12 0
12 11 -15 -10 -3 0
12 -11 -5 -10 -9 15 1 0
-5 -2 10 0
-6 12 15 -1 0
-11 15 1 0
-8 -15 -3 6 0
14 5 -3 -12 0
-7 -10 12 15 0
12 -5 -9 0
-16 13 12 0
5 -7 -23 -15 10 0
12 -22 0
15 2 -11 0
4 -15 11 -19 -13 0
-10 24 -5 -21 20 0
8 -17 22 14 -11 21 0
-20 5 23 -24 16 0
18 19 -4 0
-9 -18 17 4 24 16 -12 21 10 1 -19 0
-4 -2 -14 0
-18 21 11 0
21 -15 12 -16 0
-12 -19 13 14 -22 -15 0
3 11 13 -14 -12 21 0
16 -9 0
-16 21 13 0
-23 -19 2 0
24 10 -13 -9 5 -21 0
8 -3 -21 11 -10 -13 15 22 0
21 16 -18 0
14 4 -23 11 -5 15 -18 0
-17 -23 1 5 8 0
-14 -18 3 -17 0
11 -18 23 -7 -17 22 -12 -20 16 0
-16 20 -13 21 0
-23 -18 -24 11 19 -12 20 0
18 -5 20 22 0
20 17 -4 -1 0
15 -6 24 -8 0
12 -23 -19 2 -4 0
23 10 -6 0
-16 -1 -3 2 21 20 -9 -7 0
20 10 23 0
-10 13 4 0
8 18 16 0
19 7 -14 0
15 19 17 0
4 14 21 -16 -15 -11 0
8 16 -12 0
-21 22 15 0
-7 10 -4 16 23 0
21 -24 -12 -17 0
12 2 23 0
-17 12 -18 21 -19 13 0
-18 16 -23 9 21 -14 0
