c seed 1255666730
c width 8
c scramble 0
c layers 2
c equalities 0
c ands 0
c xors3 0
c xors4 0
c layer[0] = [1..8] w=8 v=8 c=32 r=4.00 q=0
c layer[1] = [9..15] w=7 v=15 c=55 r=3.67 q=0
p cnf 15 87
5 4 2 0
-3 -2 -6 0
8 1 -5 3 6 7 0
-1 -8 -7 -4 6 0
-3 -6 0
5 -2 0
2 -5 0
-5 -1 6 2 -7 8 0
5 -6 3 0
-7 -4 2 -5 0
-3 8 7 -2 0
-6 8 0
3 -4 -6 0
7 -5 6 -8 4 0
8 -1 -5 2 4 7 3 0
-3 7 -5 -8 2 -6 -1 0
4 -5 2 0
5 4 -6 0
5 3 -1 0
1 7 -4 5 0
6 5 3 4 0
-4 5 6 0
5 -3 4 0
-8 3 -2 4 7 0
-2 -8 -3 6 -5 0
-7 -6 1 -4 0
-2 6 -1 -3 -4 0
5 -3 -1 0
-3 5 -8 0
-8 -5 0
-4 -1 8 3 0
-7 2 0
-7 4 -14 0
-12 5 -2 8 -9 3 4 14 -13 0
-15 -7 -10 -11 0
15 8 10 9 -6 11 13 12 3 0
1 -13 -12 0
-3 10 1 9 -6 7 -15 0
10 -9 -5 0
1 14 15 0
9 -7 -5 -3 14 0
-15 11 5 -4 10 -13 -7 -2 -9 0
-14 3 4 9 8 10 5 2 13 0
-2 8 -9 -14 4 0
15 9 13 -8 -7 0
-13 12 -9 14 -3 -8 0
14 -5 4 -9 6 -13 -3 1 -7 11 8 -2 0
-15 -7 -8 6 0
-10 -2 -9 0
9 -8 6 5 0
-11 -5 14 0
4 9 7 -14 0
-12 4 11 -10 15 0
-11 4 13 0
5 13 -4 12 -6 9 15 0
-4 -13 9 -11 10 0
-11 -8 10 0
2 -15 9 -8 0
-10 -6 -12 -9 15 11 0
3 -14 1 -15 9 -11 0
-9 1 15 13 0
-1 -9 0
-3 8 15 2 0
-2 -1 13 0
-11 -15 -1 12 0
11 -9 5 -4 0
-1 -10 5 11 0
-6 -2 -10 -13 -14 1 7 -11 -3 0
-11 4 13 10 12 -8 0
-1 -9 -15 10 2 6 14 -5 -3 0
-10 -12 -1 0
12 -1 -14 6 3 5 0
-6 7 10 0
10 11 15 14 3 6 0
-3 13 -15 0
-1 -2 10 0
7 4 13 8 1 -12 0
8 12 -13 0
-8 -9 -4 12 3 13 -10 -2 -5 0
-6 -4 -8 -12 -11 0
-8 -11 14 -1 4 0
11 7 -13 6 0
-3 14 0
10 -4 5 12 14 -11 0
-13 -8 10 0
3 14 11 0
6 10 0
