c seed 1669161540
c width 5
c scramble -1
c layers 2
c equalities 0
c ands 0
c xors3 0
c xors4 6
c layer[0] = [1..5] w=5 v=5 c=15 r=3.00 q=0
c layer[1] = [6..10] w=5 v=10 c=36 r=3.60 q=0
p cnf 10 99
1 2 -3 -5 0
-2 3 -4 0
-1 4 5 0
-2 -4 5 0
5 4 -1 0
-2 1 5 -3 0
5 3 -4 0
2 5 -3 -1 4 0
-1 -3 -4 0
3 5 -1 2 0
-1 -2 4 -3 0
-5 2 3 -1 0
-3 4 0
-1 -3 2 0
-5 0
-5 -6 2 -9 1 -7 -4 0
3 -1 6 0
-4 -2 -3 8 0
10 4 7 0
9 -4 -10 2 0
2 -8 -10 4 0
-9 6 -1 3 4 7 8 0
-5 -10 -9 0
6 -3 -10 0
5 -2 0
9 -7 5 -3 0
1 -9 2 0
-10 -2 4 0
-8 5 -4 9 0
1 10 3 0
-6 -3 -8 -2 0
1 3 7 -10 -8 0
8 -1 -7 -9 0
-3 2 -6 0
7 -3 5 0
-8 5 -2 -4 9 0
-5 -7 3 10 4 8 2 0
6 10 -7 -5 9 0
-7 8 -1 0
7 2 -1 0
-7 -2 6 5 -3 0
2 10 7 0
9 3 -4 0
-10 7 4 -2 0
-4 1 7 -2 0
6 -8 2 -9 0
-1 10 -2 0
-8 2 -4 0
-6 -5 7 0
5 9 7 8 0
7 6 1 4 -5 0
-2 -9 -3 2 0
-2 -9 3 -2 0
-2 9 -3 -2 0
-2 9 3 2 0
2 -9 -3 -2 0
2 -9 3 2 0
2 9 -3 2 0
2 9 3 -2 0
9 -2 2 5 0
9 -2 -2 -5 0
9 2 2 -5 0
9 2 -2 5 0
-9 -2 2 -5 0
-9 -2 -2 5 0
-9 2 2 5 0
-9 2 -2 -5 0
3 -7 -2 2 0
3 -7 2 -2 0
3 7 -2 -2 0
3 7 2 2 0
-3 -7 -2 -2 0
-3 -7 2 2 0
-3 7 -2 2 0
-3 7 2 -2 0
-1 -6 9 10 0
-1 -6 -9 -10 0
-1 6 9 -10 0
-1 6 -9 10 0
1 -6 9 -10 0
1 -6 -9 10 0
1 6 9 10 0
1 6 -9 -10 0
9 5 -6 5 0
9 5 6 -5 0
9 -5 -6 -5 0
9 -5 6 5 0
-9 5 -6 -5 0
-9 5 6 5 0
-9 -5 -6 5 0
-9 -5 6 -5 0
4 2 5 -6 0
4 2 -5 6 0
4 -2 5 6 0
4 -2 -5 -6 0
-4 2 5 6 0
-4 2 -5 -6 0
-4 -2 5 -6 0
-4 -2 -5 6 0
