c seed 1830580139
c width 8
c scramble 0
c layers 2
c equalities 0
c ands 0
c xors3 0
c xors4 0
c layer[0] = [1..5] w=5 v=5 c=18 r=3.60 q=0
c layer[1] = [6..11] w=6 v=11 c=39 r=3.55 q=0
p cnf 11 57
-4 -3 -2 -1 0
3 2 1 -5 4 0
5 4 1 2 0
4 -5 -3 2 0
2 -1 -4 3 0
3 1 0
-2 -4 -1 3 5 0
1 -4 0
-1 -2 -5 3 0
1 -3 0
1 -5 -3 2 0
3 4 -5 0
-5 -1 -2 -4 0
1 5 -4 -2 0
-5 -2 0
-2 4 1 -5 3 0
-3 -2 1 -4 0
5 -1 3 -4 2 0
11 -7 2 0
6 5 10 -9 0
-5 3 -6 -8 -11 0
1 9 8 -10 0
3 2 7 -9 5 8 -4 0
-11 2 -7 -10 0
-1 8 0
-7 4 0
3 -1 11 0
-8 4 -11 0
1 10 2 0
-3 10 -9 0
-3 6 10 2 9 5 0
4 3 11 -7 6 5 0
10 11 9 0
11 1 -3 0
-6 7 11 0
-11 -6 5 0
9 -11 -5 1 0
-8 9 -2 5 -1 -10 0
-3 -5 8 0
1 -3 4 -6 2 10 0
4 -7 -3 0
-9 2 0
5 2 -7 11 10 6 0
9 -2 -6 -7 1 0
3 -9 -5 0
11 1 8 -5 0
6 5 0
-9 3 5 4 10 0
-3 4 10 9 -8 -11 -5 0
2 -11 10 1 -4 -6 -5 8 7 0
6 5 3 0
9 -2 3 0
-1 -7 9 4 0
-3 -6 7 0
10 8 -1 -5 3 2 0
10 -4 3 0
11 3 -7 9 5 -4 8 10 0
