c seed 486676888
c width 10
c scramble -1
c layers 1
c equalities 0
c ands 0
c xors3 0
c xors4 0
c layer[0] = [1..9] w=9 v=9 c=37 r=4.11 q=0
p cnf 9 37
2 3 -6 1 5 -8 0
7 6 4 9 0
8 -7 -3 -5 -9 0
-1 -4 -2 -7 -8 3 0
-6 5 0
1 -8 0
4 -8 7 -6 0
8 5 0
-8 -3 -7 0
2 -3 5 7 -1 -9 8 -6 0
7 5 -1 8 3 4 -2 0
4 -7 -3 0
3 -4 0
5 -7 1 0
-5 -9 7 0
5 8 -1 4 0
-7 -3 -1 0
5 2 0
-8 3 4 9 0
-3 9 -2 -7 0
9 -8 1 0
7 4 2 1 -3 0
1 9 7 0
8 5 -2 -3 7 0
-2 -7 8 -4 0
-5 -3 4 0
-4 -6 -2 1 7 0
-5 -1 -6 0
1 -4 0
-8 -5 -4 -6 0
5 6 -1 0
-6 -2 -1 -8 0
-2 5 -1 3 0
7 9 0
-2 -4 -9 -5 0
7 -6 -8 -4 0
8 2 -9 0
