c seed 2093856472
c width 8
c scramble 1
c layers 2
c equalities 0
c ands 0
c xors3 0
c xors4 0
c layer[0] = [1..5] w=5 v=5 c=17 r=3.40 q=0
c layer[1] = [6..10] w=5 v=10 c=36 r=3.60 q=0
p cnf 10 53
5 -2 -4 -3 1 0
2 -1 3 -5 4 0
-5 1 0
-5 3 -1 0
-5 -3 -2 0
1 4 -5 0
4 -2 5 -3 -1 0
3 4 5 -1 0
4 -5 0
-3 -4 1 -2 0
4 3 -2 -5 -1 0
2 -5 3 0
-1 2 5 0
-4 -1 5 0
-2 -5 -4 3 0
-2 -4 3 0
-3 5 1 0
1 10 -6 -2 0
-2 4 -8 -7 -5 0
-3 -10 8 0
9 -2 1 7 6 0
-9 2 7 -8 6 10 -5 1 0
5 10 -3 -2 -8 7 0
-4 1 2 0
-10 8 0
-4 -8 -10 -3 -6 0
-3 9 -10 0
2 3 9 0
2 -7 1 0
-9 7 10 -3 4 0
-8 -4 3 6 0
-10 5 -8 7 -3 -6 -9 0
1 8 6 3 0
6 1 -9 0
-4 8 1 0
5 8 -9 0
-1 8 0
4 5 2 -6 1 8 0
6 -3 0
-10 8 4 0
2 9 -10 0
1 -10 -8 0
6 -10 7 -9 0
-3 -10 -7 0
-5 3 -7 0
-9 -4 -5 -2 -7 0
9 -3 8 7 -5 -2 0
-5 -6 -1 0
-5 -7 -3 -8 -9 1 0
10 3 -5 0
-1 8 10 0
-7 10 5 0
10 -8 1 -4 7 6 0
