c seed 1316516664
c width 10
c scramble 0
c layers 2
c equalities 0
c ands 0
c xors3 0
c xors4 0
c layer[0] = [1..7] w=7 v=7 c=22 r=3.14 q=0
c layer[1] = [8..15] w=8 v=15 c=53 r=3.53 q=0
p cnf 15 75
-1 5 -4 7 0
-6 -3 -7 2 1 4 -5 0
-2 6 3 0
-4 -2 -1 3 -7 -6 0
3 -4 -2 7 -1 -5 0
3 4 6 -7 0
-1 3 7 0
-1 -3 -7 0
6 3 -4 0
-5 -2 -4 7 -3 -1 0
-4 5 -2 -6 -3 -1 0
7 -2 -5 0
-3 -5 -7 1 4 6 0
4 1 -3 0
-4 -3 0
-7 -3 0
-1 4 -5 6 0
-3 -2 5 7 -6 0
7 -1 4 2 0
-6 3 -4 0
4 -2 -1 0
-7 3 5 -6 0
2 -12 3 0
-10 -13 15 2 0
-11 7 -5 0
5 1 -9 -8 -2 0
-15 5 6 12 0
10 4 13 -7 0
3 8 9 -2 11 5 -14 -7 0
14 -10 -9 -15 0
-11 2 6 0
6 -14 11 -1 10 0
9 6 3 0
-11 -13 12 7 0
3 10 14 0
15 5 3 0
14 -5 -6 13 0
-1 2 5 -12 3 -13 0
-8 7 3 2 -4 -1 0
-5 6 -4 0
15 -7 -6 0
-3 6 -13 -11 0
-7 -15 10 6 14 -9 3 0
-3 13 14 0
4 -6 9 -3 0
14 11 -6 -9 0
12 -3 -5 0
5 -15 0
3 -1 13 2 -4 0
-10 7 -5 0
1 3 -2 9 14 0
9 -12 -6 -11 0
-6 -2 -3 12 9 1 15 0
-4 -8 1 -10 -15 0
-5 -11 -8 -2 -6 -1 0
-13 -10 -3 0
-15 13 6 0
4 -11 9 0
12 1 -4 0
14 7 11 4 15 0
-9 15 2 -6 -7 0
13 12 -5 8 0
-2 -11 -15 -3 0
-6 -3 -4 0
-4 -11 10 0
14 -4 -5 0
-8 4 -12 -3 0
4 -14 -3 0
10 -2 -9 -1 5 15 14 0
13 3 0
-11 4 10 0
-2 15 0
-4 -15 -5 -8 0
2 1 -14 3 15 0
4 5 9 -7 -1 -2 0
