c seed 995489262
c width 9
c scramble -1
c layers 2
c equalities 0
c ands 0
c xors3 0
c xors4 0
c layer[0] = [1..9] w=9 v=9 c=40 r=4.44 q=0
c layer[1] = [10..16] w=7 v=16 c=52 r=3.25 q=0
p cnf 16 92
-5 -1 6 -3 -8 -4 7 0
-6 -9 8 -2 0
4 1 3 5 -7 2 9 0
-5 -6 -2 -1 0
9 8 0
6 -5 0
-2 -1 0
-4 -3 -5 0
5 4 -6 8 -9 -3 -1 0
8 -7 -5 -1 0
-4 5 0
2 6 0
-6 4 -1 0
8 5 4 -6 0
-1 8 3 2 0
-9 -5 -6 -8 1 0
-3 4 -8 0
-2 -3 1 -7 0
-4 7 -8 0
3 6 -1 0
-7 -4 -3 0
-9 -5 -1 -4 0
2 -4 0
3 5 2 4 6 8 -7 0
9 1 8 -7 0
-2 5 -9 0
-2 -8 -7 -3 0
7 4 9 0
4 -2 8 3 0
7 -3 -2 -8 6 0
9 7 3 -6 -8 5 0
-2 -3 -9 0
4 -6 -1 0
-7 8 0
1 -4 -5 -3 -9 6 2 0
3 -2 8 0
-9 -4 -8 0
3 -6 5 4 0
-4 6 -1 0
3 4 7 0
11 -12 -1 -2 0
-1 -13 -9 -4 8 12 -16 -15 0
16 10 -11 5 0
15 14 -10 0
8 -7 13 -14 0
14 5 -4 9 -6 7 0
-10 13 0
-12 10 13 -9 4 2 0
-6 14 -10 0
9 -6 5 0
-15 -5 -13 -2 -12 0
10 3 -8 13 0
4 -6 -15 -2 0
8 -7 16 0
-10 11 0
-16 13 10 0
13 -15 -11 0
14 15 5 0
-8 -7 15 -4 -16 14 0
-4 2 7 -12 -11 -1 0
-2 5 15 0
-15 16 -11 12 0
14 3 9 -16 -2 0
-8 3 -2 -5 0
-6 13 9 -11 5 0
11 -13 -5 10 1 9 16 -8 0
-9 -13 12 0
14 2 8 -13 0
12 -13 1 -10 -14 0
10 -2 7 9 -8 0
10 13 -7 3 0
-12 -5 2 10 -9 0
-4 -11 -16 -2 -3 0
-5 15 -10 -2 -11 -13 -7 -3 -9 -14 0
11 12 -7 -6 8 0
7 16 0
12 4 6 10 7 0
14 13 6 0
3 -2 -15 -14 16 0
1 -13 6 0
1 -14 9 0
-11 12 -16 -10 0
11 16 -8 -10 1 0
-4 -15 0
-14 10 -12 4 -9 0
8 -12 14 3 0
11 -15 16 -1 3 0
5 9 -2 -11 10 0
8 5 11 0
8 13 1 0
14 -8 -12 0
8 -6 14 -5 -2 11 0
