c seed 379718525
c width 6
c scramble 0
c layers 3
c equalities 0
c ands 0
c xors3 0
c xors4 0
c layer[0] = [1..5] w=5 v=5 c=15 r=3.00 q=0
c layer[1] = [6..11] w=6 v=11 c=37 r=3.36 q=0
c layer[2] = [12..17] w=6 v=12 c=48 r=4.00 q=0
p cnf 17 100
3 1 -4 -5 0
5 4 -3 -2 0
-1 2 -4 -3 0
3 2 5 4 0
2 -5 -1 0
5 -4 -2 0
-5 -2 -1 0
-3 -2 4 0
-1 3 0
-5 2 -3 0
2 -4 -3 -1 0
4 1 3 0
-5 3 -2 0
4 -5 -1 3 0
1 4 -3 0
5 1 -6 0
1 -3 -10 5 0
-7 4 1 6 -5 0
3 2 5 9 0
7 -9 -8 10 0
8 1 5 11 0
3 -11 0
-7 4 -1 -11 10 0
-6 -10 -4 3 1 0
10 -1 -2 3 6 0
8 9 0
-6 -2 4 -3 10 0
8 -4 -11 -1 7 0
5 -2 9 0
5 10 8 11 6 -2 -9 0
-10 -8 6 9 0
-7 9 -1 2 3 8 5 0
3 -6 0
1 4 -11 -3 0
6 -9 -11 0
-2 -10 0
-4 1 5 0
-2 7 5 10 -3 -8 0
6 -11 -3 5 7 0
-5 -9 4 11 3 -1 0
-3 10 -8 0
-4 -2 0
-4 11 -3 10 7 5 0
8 4 9 -6 1 -11 0
-10 1 6 3 0
2 -10 0
-2 7 -5 0
-4 -1 -11 -8 -10 0
-8 6 9 0
-7 10 -3 -9 -6 -5 0
7 -9 0
5 -2 1 -6 0
-13 12 -15 17 -16 -6 0
11 16 -12 2 14 0
-8 13 3 -2 -14 -17 15 16 -7 0
6 -4 3 -14 15 0
13 -7 -11 -16 0
13 8 16 0
6 -8 -9 -2 16 0
-2 -5 3 0
-1 8 -15 5 -4 0
2 1 -14 6 16 -4 5 0
16 -14 17 0
7 -13 -14 -17 0
11 -7 -2 -9 0
15 12 -16 14 -2 4 0
6 -16 -8 -5 2 17 0
14 -5 4 8 16 -6 -1 13 -11 0
-15 11 12 0
-12 16 0
1 3 12 -5 -8 0
-16 -17 5 -9 0
-3 9 17 5 -2 14 1 4 0
15 -7 -13 0
-12 7 -13 15 0
-16 15 -1 -9 -8 -10 0
-3 -15 -13 -8 2 0
17 -3 14 5 -1 -2 -6 13 0
-12 13 10 -14 0
-15 17 14 6 0
-16 -17 1 9 5 0
4 -17 16 7 13 -5 0
-16 -12 -4 9 11 0
-14 -9 13 -11 -6 -1 0
16 -12 13 0
17 3 1 -15 -5 0
-4 -7 2 0
-12 9 15 0
14 2 11 12 0
-10 -2 15 -6 0
17 7 3 -1 15 -11 14 -13 5 4 16 0
-12 -8 -2 -9 11 -17 0
15 -14 4 9 1 0
-6 -1 13 0
-9 3 15 0
-17 13 14 10 -5 0
7 -15 -1 0
4 -16 -14 -2 -10 1 -12 -13 3 0
-8 -1 -17 0
14 11 15 0
