c seed 2064344793
c width 10
c scramble -1
c layers 2
c equalities 0
c ands 0
c xors3 0
c xors4 0
c layer[0] = [1..6] w=6 v=6 c=23 r=3.83 q=0
c layer[1] = [7..15] w=9 v=15 c=48 r=3.20 q=0
p cnf 15 71
4 -3 -1 5 2 6 0
1 -5 -4 -2 3 -6 0
1 3 -6 0
5 -3 -2 4 -6 1 0
3 5 -6 0
-3 -1 5 0
2 6 3 1 5 0
-5 3 4 -1 -6 0
-6 4 -5 0
-5 3 1 4 2 0
2 -1 5 0
-2 -1 -5 -4 3 -6 0
-4 5 6 0
-5 -1 -6 2 0
-5 -6 0
-4 6 -1 0
3 -6 0
-6 -4 -3 1 0
-6 5 -1 3 0
-4 -6 2 5 0
5 -6 4 3 0
4 -2 6 3 1 0
1 3 0
-6 2 -13 3 0
-15 13 -2 0
14 -8 4 0
2 1 0
6 -12 -2 7 -9 -5 0
-5 -3 -2 0
-10 -3 5 -7 0
-4 1 -5 12 2 15 11 0
9 10 8 -5 -11 4 0
-14 5 -9 0
2 -8 5 10 0
1 15 0
9 14 7 3 10 1 0
-14 -11 -5 -3 4 0
9 -3 -1 0
-9 1 4 0
-12 -9 6 13 -3 0
-12 14 -6 8 5 1 0
-12 4 10 -3 6 -13 0
-5 -2 8 14 9 -3 13 10 0
-13 -6 10 15 11 0
1 -11 -10 -12 7 0
-14 -7 4 0
-12 -3 7 13 0
-5 12 6 0
14 9 -3 0
2 -14 9 11 0
10 14 -12 0
4 14 9 0
12 -3 -8 -9 0
7 -13 3 0
10 4 -6 -2 14 0
-2 -6 0
-4 -3 2 15 -14 1 9 -11 0
-9 -10 0
-4 12 -13 -6 -14 0
15 -5 -14 -6 0
6 3 2 -1 -9 0
10 -8 4 -5 0
4 3 -11 -5 -13 -14 -2 0
-2 -3 -5 0
-2 13 7 15 0
-7 -1 -10 3 13 0
4 5 -14 12 0
15 7 11 5 2 0
5 -6 -9 0
5 -1 -4 -2 0
-3 -8 0
