c seed 604971726
c width 9
c scramble 0
c layers 2
c equalities 0
c ands 0
c xors3 0
c xors4 0
c layer[0] = [1..8] w=8 v=8 c=24 r=3.00 q=0
c layer[1] = [9..17] w=9 v=17 c=52 r=3.06 q=0
p cnf 17 76
5 -7 8 0
-1 2 7 3 0
6 -2 1 -5 -3 -8 4 0
-6 -4 -1 3 -8 0
4 3 7 -2 6 -8 0
-1 2 -3 0
6 -7 -5 -8 0
5 -7 2 -3 0
3 2 6 0
-8 -3 5 2 0
-5 2 1 -3 8 6 0
-5 7 0
7 -2 8 0
-5 6 -8 0
-2 1 3 6 0
4 -6 1 0
7 -2 -1 0
-8 -5 4 7 1 0
2 -3 6 0
-8 -6 5 -3 0
4 -6 -5 0
-1 -6 7 0
7 -3 -1 6 -4 -5 8 0
3 -6 -5 -1 0
-2 -5 -16 15 12 10 0
14 -9 8 0
6 -17 -3 5 -12 11 -1 9 0
8 13 -11 0
-5 -3 -14 0
-1 -13 17 0
6 16 -10 -15 -2 0
-5 -10 16 -15 6 0
6 -7 11 0
-4 -13 -9 14 -15 0
-17 1 10 16 -6 -5 2 0
-11 17 2 15 -7 -3 0
-9 15 -5 -6 -10 0
3 5 4 -11 1 -13 0
7 -4 -8 -17 0
5 -10 -7 16 0
-2 14 -16 8 -4 0
-1 7 11 0
9 6 5 17 0
-13 -5 6 0
13 -5 -9 0
10 2 7 15 0
8 -13 16 9 0
6 -5 -12 14 -11 -17 0
-1 4 6 13 0
-14 -6 1 -16 12 5 0
12 8 2 17 0
6 5 -12 0
4 -15 -16 0
7 9 -3 8 16 0
-14 5 -6 0
-3 -2 15 5 -12 16 -8 17 0
-4 10 9 0
-11 -14 -12 10 0
15 13 -9 0
-6 -9 7 10 14 0
-6 3 9 1 5 12 7 4 -11 -14 0
12 -5 -9 -16 0
-8 -6 13 -14 10 0
-10 -13 14 0
-2 7 3 1 0
6 -15 9 14 -11 -5 3 0
-15 -6 16 13 0
-1 4 -3 -12 8 -9 -13 5 0
6 -14 9 0
7 -3 11 -9 0
2 16 -5 7 0
-13 -6 16 0
6 -1 -17 0
2 -9 -13 0
-1 15 3 0
-9 -13 2 5 7 -10 0
