c seed 701513953
c width 8
c scramble -1
c layers 3
c equalities 0
c ands 0
c xors3 0
c xors4 0
c layer[0] = [1..5] w=5 v=5 c=20 r=4.00 q=0
c layer[1] = [6..13] w=8 v=13 c=53 r=4.08 q=0
c layer[2] = [14..19] w=6 v=14 c=58 r=4.14 q=0
p cnf 19 131
-2 -5 -3 0
2 1 -4 5 0
4 3 -1 5 -2 0
3 4 1 -2 5 0
-2 1 5 4 0
5 4 1 -2 0
1 5 3 0
-1 4 -3 0
-5 -4 -1 0
3 -4 1 2 0
-3 5 0
-4 -2 -5 0
3 -5 -4 0
4 5 3 2 0
-2 1 0
2 -4 1 0
2 5 -3 0
-2 4 -3 0
2 5 -1 -4 0
4 -2 5 0
-4 -3 12 0
-2 11 13 8 -4 0
4 -2 0
-8 -5 -11 -9 -2 3 0
-3 7 -13 1 0
-10 -12 6 0
-6 5 0
9 10 -5 -4 0
2 -1 -7 -3 0
13 10 0
2 10 13 0
-1 9 -5 12 0
3 4 5 12 0
-4 3 -7 0
-3 -13 -10 0
-6 -4 -5 -7 0
-2 8 -1 -12 -4 0
6 -4 -12 0
7 5 0
-5 -7 -1 -10 0
-4 10 -13 0
3 -1 -13 -5 0
4 8 12 2 -1 -5 0
1 -13 2 9 4 0
5 4 -8 -11 0
-5 -12 11 -3 2 0
3 8 5 1 0
8 -1 9 0
12 -13 -1 0
5 1 -3 0
-3 -9 8 -5 0
-9 -3 0
-13 -8 0
-2 -1 8 -3 12 0
3 11 6 0
8 9 -7 -3 4 0
-2 1 0
12 -9 6 5 0
1 3 7 2 0
-5 -9 -13 0
5 -8 11 6 0
6 -4 10 -12 13 -3 -2 0
13 1 -4 8 -3 0
7 4 1 0
6 -3 -1 0
-3 4 0
2 -12 0
3 -1 -6 10 5 -8 0
-12 -11 -1 8 0
5 -9 -6 0
-12 5 1 0
-10 -8 0
-9 -12 11 2 0
-16 17 -13 0
-12 -5 19 0
-3 16 -4 18 15 0
1 14 -15 0
-1 -7 -17 0
-18 -19 -14 0
15 -19 -18 14 0
-6 3 -16 0
-9 13 18 12 15 14 0
-18 -5 -19 -16 0
1 15 -19 -9 10 0
14 -9 -7 0
-17 7 3 0
3 15 -18 -13 16 0
-1 -17 -18 0
-17 -18 -11 0
-10 3 -14 8 2 19 0
-6 -17 2 0
9 13 10 -14 -15 0
15 18 19 0
18 -15 6 14 0
-4 -16 -11 -17 -2 0
14 10 15 -1 19 4 0
9 -18 -12 14 0
-10 -18 14 -1 0
8 3 -17 -16 0
5 8 -15 0
19 -17 -5 3 0
11 -17 -19 5 16 0
-2 -18 -14 0
-6 8 -16 -14 0
-4 -18 2 0
19 -6 -16 -13 -7 -5 0
-2 15 -19 0
-18 17 -8 -4 0
-16 5 2 0
-4 -5 18 -19 0
19 12 14 4 7 0
19 -17 7 -16 5 13 -12 0
-16 14 -3 0
13 11 -15 0
-2 -3 17 15 0
-9 -19 -3 14 -18 0
-13 5 -1 0
-11 5 -15 19 0
-18 3 16 -14 0
-16 -1 17 6 9 0
-16 -15 -1 -19 -3 0
-18 -8 -15 2 -19 0
-16 12 14 0
13 -2 0
-14 19 -9 0
16 1 14 18 -19 0
-4 8 3 13 0
-16 18 -15 14 0
19 13 16 0
9 -1 -18 10 17 16 -6 0
-2 15 18 3 17 16 -13 1 5 -9 0
