c seed 796231652
c width 10
c scramble -1
c layers 3
c equalities 0
c ands 0
c xors3 0
c xors4 0
c layer[0] = [1..10] w=10 v=10 c=31 r=3.10 q=0
c layer[1] = [11..16] w=6 v=16 c=63 r=3.94 q=0
c layer[2] = [17..26] w=10 v=16 c=49 r=3.06 q=0
p cnf 26 143
9 7 3 6 -1 0
-6 -5 8 -9 4 1 0
2 -4 -8 0
5 -7 -10 0
10 -2 -3 8 1 5 -6 9 4 0
7 -4 -1 -2 0
5 -3 0
3 1 0
-3 10 7 2 9 1 -6 0
8 7 4 -6 -1 5 0
-8 4 -3 7 -9 6 0
5 10 0
-1 -2 -10 -7 5 8 -9 0
-3 6 -8 -5 0
7 2 10 9 0
10 -7 8 -9 -3 0
8 5 2 -7 -1 -10 0
-9 5 -2 0
6 -4 -9 0
-7 3 6 0
-7 9 -3 10 8 0
2 4 9 0
10 7 -5 6 8 9 0
-3 4 10 0
9 -5 0
3 9 -6 -2 -8 0
-3 5 8 -2 -6 0
6 -3 0
1 -2 3 0
8 -1 -9 0
-2 -6 1 -7 9 -8 0
-1 -10 8 -15 -16 0
10 13 11 0
14 -12 15 0
-11 -10 12 -2 1 0
-14 7 -13 0
16 -3 6 2 -13 0
9 8 11 0
-13 -5 -4 -11 -8 0
9 -13 11 0
13 11 1 6 -8 7 -12 0
-11 2 15 0
-13 -8 5 0
1 12 -13 0
12 3 -5 0
-8 -13 0
-13 6 8 4 -16 0
5 -1 10 0
9 -15 0
-15 5 -3 4 0
9 -12 0
4 10 0
-7 -9 -4 -14 6 0
-5 12 -16 0
14 -13 0
-8 -16 -2 0
-4 12 -10 0
-10 -14 2 0
-7 -15 -16 5 14 9 0
-6 12 -15 0
-11 6 2 15 0
7 13 -15 5 2 0
-13 -15 11 0
7 8 -16 12 -4 11 13 0
6 -1 -9 0
-16 -3 -2 0
-7 -13 -2 -10 0
2 -6 11 0
-14 -11 0
14 -10 6 0
12 -13 5 0
14 -6 -16 3 -13 2 0
-8 11 2 -3 14 -12 -15 0
3 -16 -14 0
13 -11 6 -14 3 4 0
3 -12 13 0
-11 12 4 -2 0
1 11 -8 0
14 -8 -13 -12 16 2 -5 0
14 11 -8 0
11 -13 14 -7 0
-13 -12 -9 -1 0
-7 12 10 0
6 -2 13 0
5 -13 -7 3 2 0
-12 10 -9 0
-13 -15 0
-4 9 -14 -12 0
7 -9 -4 0
-14 -3 -12 -13 -16 -1 -11 -2 15 0
-11 6 12 1 -10 0
-14 9 6 -16 -10 11 13 0
6 11 9 13 10 -14 -16 -4 3 0
13 15 9 0
-18 13 -25 0
-11 26 15 19 0
-23 3 -16 0
22 5 -10 0
23 20 -21 15 0
17 -7 21 14 0
-17 -24 6 -11 -22 14 25 0
-16 24 -26 0
18 -19 -20 0
-12 22 17 0
-13 -26 7 0
23 19 -8 0
-11 13 -12 10 6 0
21 -12 23 0
-16 26 18 0
13 -16 12 10 0
-7 -11 -23 -16 18 0
5 22 -15 0
-19 17 -9 0
26 -17 8 0
17 7 25 0
-18 -20 -1 0
-14 -23 22 0
-18 23 -7 -25 13 -15 -20 0
17 -4 18 0
-19 -26 0
8 15 -18 -16 -25 11 13 -26 7 -1 0
-3 -11 -26 0
18 6 16 0
-26 6 0
8 -20 -12 11 0
-24 -22 16 0
-5 -13 -15 -18 19 -22 0
-19 14 -22 21 -4 0
14 11 -19 0
-21 18 -12 -16 -13 -8 0
24 19 11 0
26 -21 9 0
25 -18 -17 0
10 -14 -17 11 0
5 15 16 0
-22 25 -13 -26 -17 10 0
-10 17 -22 21 0
25 -11 -17 10 19 0
-5 -16 17 0
10 25 0
4 -20 -13 -15 10 0
-26 -8 0
-20 -21 19 25 0
